{"problem":{"name":"connell.wcsp.xz","mustbe":"<8"},
"variables":{
"x0":["v0","v1","v2","v3","v4","v5"],
"x1":["v0","v1","v2","v3","v4","v5"],
"x2":["v0","v1","v2","v3","v4","v5"],
"x3":["v0","v1","v2","v3","v4","v5"],
"x4":["v0","v1","v2","v3","v4","v5"],
"x5":["v0","v1","v2","v3","v4","v5"],
"x6":["v0","v1","v2","v3","v4","v5"],
"x7":["v0","v1","v2","v3","v4","v5"],
"x8":["v0","v1","v2","v3","v4","v5"],
"x9":["v0","v1","v2","v3","v4","v5"],
"x10":["v0","v1","v2","v3","v4","v5"],
"x11":["v0","v1","v2","v3","v4","v5"]
},
"functions": {
"F_2_0_1":{"scope":["x2","x0","x1"],"defaultcost":0,
"costs":[
0,0,3,24,
0,0,4,24,
0,0,5,24,
0,1,3,24,
0,1,4,24,
0,1,5,24,
0,2,3,24,
0,2,4,24,
0,2,5,24,
0,3,0,24,
0,3,1,24,
0,3,2,24,
0,3,3,24,
0,3,4,24,
0,3,5,24,
0,4,0,24,
0,4,1,24,
0,4,2,24,
0,4,3,24,
0,4,4,24,
0,4,5,24,
0,5,0,24,
0,5,1,24,
0,5,2,24,
0,5,3,24,
0,5,4,24,
0,5,5,24,
1,0,0,24,
1,0,2,24,
1,0,5,24,
1,1,5,24,
1,2,0,24,
1,2,2,24,
1,2,5,24,
1,3,3,24,
1,3,4,24,
1,3,5,24,
1,4,3,24,
1,4,4,24,
1,4,5,24,
1,5,0,24,
1,5,1,24,
1,5,2,24,
1,5,3,24,
1,5,4,24,
1,5,5,24,
2,0,0,24,
2,0,1,24,
2,0,3,24,
2,1,0,24,
2,1,1,24,
2,1,3,24,
2,2,3,24,
2,3,0,24,
2,3,1,24,
2,3,2,24,
2,3,3,24,
2,3,4,24,
2,3,5,24,
2,4,3,24,
2,4,4,24,
2,4,5,24,
2,5,3,24,
2,5,4,24,
2,5,5,24,
3,0,0,24,
3,0,1,24,
3,0,2,24,
3,0,3,24,
3,0,4,24,
3,0,5,24,
3,1,0,24,
3,1,2,24,
3,1,5,24,
3,2,0,24,
3,2,1,24,
3,2,2,24,
3,2,3,24,
3,2,4,24,
3,2,5,24,
3,3,0,24,
3,3,2,24,
3,3,5,24,
3,4,0,24,
3,4,2,24,
3,4,5,24,
3,5,0,24,
3,5,1,24,
3,5,2,24,
3,5,3,24,
3,5,4,24,
3,5,5,24,
4,0,0,24,
4,0,1,24,
4,0,2,24,
4,0,3,24,
4,0,4,24,
4,0,5,24,
4,1,0,24,
4,1,1,24,
4,1,3,24,
4,2,0,24,
4,2,2,24,
4,2,5,24,
4,3,0,24,
4,3,1,24,
4,3,3,24,
4,4,0,24,
4,5,0,24,
4,5,2,24,
4,5,5,24,
5,0,0,24,
5,0,1,24,
5,0,2,24,
5,0,3,24,
5,0,4,24,
5,0,5,24,
5,1,0,24,
5,1,1,24,
5,1,2,24,
5,1,3,24,
5,1,4,24,
5,1,5,24,
5,2,0,24,
5,2,1,24,
5,2,3,24,
5,3,0,24,
5,3,1,24,
5,3,2,24,
5,3,3,24,
5,3,4,24,
5,3,5,24,
5,4,0,24,
5,4,1,24,
5,4,3,24,
5,5,0,24,
5,5,1,24,
5,5,3,24]},
"F_3_0_1":{"scope":["x3","x0","x1"],"defaultcost":0,
"costs":[
0,0,3,24,
0,0,4,24,
0,0,5,24,
0,1,3,24,
0,1,4,24,
0,1,5,24,
0,2,3,24,
0,2,4,24,
0,2,5,24,
0,3,0,24,
0,3,1,24,
0,3,2,24,
0,3,3,24,
0,3,4,24,
0,3,5,24,
0,4,0,24,
0,4,1,24,
0,4,2,24,
0,4,3,24,
0,4,4,24,
0,4,5,24,
0,5,0,24,
0,5,1,24,
0,5,2,24,
0,5,3,24,
0,5,4,24,
0,5,5,24,
1,0,0,24,
1,0,2,24,
1,0,5,24,
1,1,5,24,
1,2,0,24,
1,2,2,24,
1,2,5,24,
1,3,3,24,
1,3,4,24,
1,3,5,24,
1,4,3,24,
1,4,4,24,
1,4,5,24,
1,5,0,24,
1,5,1,24,
1,5,2,24,
1,5,3,24,
1,5,4,24,
1,5,5,24,
2,0,0,24,
2,0,1,24,
2,0,3,24,
2,1,0,24,
2,1,1,24,
2,1,3,24,
2,2,3,24,
2,3,0,24,
2,3,1,24,
2,3,2,24,
2,3,3,24,
2,3,4,24,
2,3,5,24,
2,4,3,24,
2,4,4,24,
2,4,5,24,
2,5,3,24,
2,5,4,24,
2,5,5,24,
3,0,0,24,
3,0,1,24,
3,0,2,24,
3,0,3,24,
3,0,4,24,
3,0,5,24,
3,1,0,24,
3,1,2,24,
3,1,5,24,
3,2,0,24,
3,2,1,24,
3,2,2,24,
3,2,3,24,
3,2,4,24,
3,2,5,24,
3,3,0,24,
3,3,2,24,
3,3,5,24,
3,4,0,24,
3,4,2,24,
3,4,5,24,
3,5,0,24,
3,5,1,24,
3,5,2,24,
3,5,3,24,
3,5,4,24,
3,5,5,24,
4,0,0,24,
4,0,1,24,
4,0,2,24,
4,0,3,24,
4,0,4,24,
4,0,5,24,
4,1,0,24,
4,1,1,24,
4,1,3,24,
4,2,0,24,
4,2,2,24,
4,2,5,24,
4,3,0,24,
4,3,1,24,
4,3,3,24,
4,4,0,24,
4,5,0,24,
4,5,2,24,
4,5,5,24,
5,0,0,24,
5,0,1,24,
5,0,2,24,
5,0,3,24,
5,0,4,24,
5,0,5,24,
5,1,0,24,
5,1,1,24,
5,1,2,24,
5,1,3,24,
5,1,4,24,
5,1,5,24,
5,2,0,24,
5,2,1,24,
5,2,3,24,
5,3,0,24,
5,3,1,24,
5,3,2,24,
5,3,3,24,
5,3,4,24,
5,3,5,24,
5,4,0,24,
5,4,1,24,
5,4,3,24,
5,5,0,24,
5,5,1,24,
5,5,3,24]},
"F_4_0_1":{"scope":["x4","x0","x1"],"defaultcost":0,
"costs":[
0,0,3,24,
0,0,4,24,
0,0,5,24,
0,1,3,24,
0,1,4,24,
0,1,5,24,
0,2,3,24,
0,2,4,24,
0,2,5,24,
0,3,0,24,
0,3,1,24,
0,3,2,24,
0,3,3,24,
0,3,4,24,
0,3,5,24,
0,4,0,24,
0,4,1,24,
0,4,2,24,
0,4,3,24,
0,4,4,24,
0,4,5,24,
0,5,0,24,
0,5,1,24,
0,5,2,24,
0,5,3,24,
0,5,4,24,
0,5,5,24,
1,0,0,24,
1,0,2,24,
1,0,5,24,
1,1,5,24,
1,2,0,24,
1,2,2,24,
1,2,5,24,
1,3,3,24,
1,3,4,24,
1,3,5,24,
1,4,3,24,
1,4,4,24,
1,4,5,24,
1,5,0,24,
1,5,1,24,
1,5,2,24,
1,5,3,24,
1,5,4,24,
1,5,5,24,
2,0,0,24,
2,0,1,24,
2,0,3,24,
2,1,0,24,
2,1,1,24,
2,1,3,24,
2,2,3,24,
2,3,0,24,
2,3,1,24,
2,3,2,24,
2,3,3,24,
2,3,4,24,
2,3,5,24,
2,4,3,24,
2,4,4,24,
2,4,5,24,
2,5,3,24,
2,5,4,24,
2,5,5,24,
3,0,0,24,
3,0,1,24,
3,0,2,24,
3,0,3,24,
3,0,4,24,
3,0,5,24,
3,1,0,24,
3,1,2,24,
3,1,5,24,
3,2,0,24,
3,2,1,24,
3,2,2,24,
3,2,3,24,
3,2,4,24,
3,2,5,24,
3,3,0,24,
3,3,2,24,
3,3,5,24,
3,4,0,24,
3,4,2,24,
3,4,5,24,
3,5,0,24,
3,5,1,24,
3,5,2,24,
3,5,3,24,
3,5,4,24,
3,5,5,24,
4,0,0,24,
4,0,1,24,
4,0,2,24,
4,0,3,24,
4,0,4,24,
4,0,5,24,
4,1,0,24,
4,1,1,24,
4,1,3,24,
4,2,0,24,
4,2,2,24,
4,2,5,24,
4,3,0,24,
4,3,1,24,
4,3,3,24,
4,4,0,24,
4,5,0,24,
4,5,2,24,
4,5,5,24,
5,0,0,24,
5,0,1,24,
5,0,2,24,
5,0,3,24,
5,0,4,24,
5,0,5,24,
5,1,0,24,
5,1,1,24,
5,1,2,24,
5,1,3,24,
5,1,4,24,
5,1,5,24,
5,2,0,24,
5,2,1,24,
5,2,3,24,
5,3,0,24,
5,3,1,24,
5,3,2,24,
5,3,3,24,
5,3,4,24,
5,3,5,24,
5,4,0,24,
5,4,1,24,
5,4,3,24,
5,5,0,24,
5,5,1,24,
5,5,3,24]},
"F_7_5_3":{"scope":["x7","x5","x3"],"defaultcost":0,
"costs":[
0,0,3,24,
0,0,4,24,
0,0,5,24,
0,1,3,24,
0,1,4,24,
0,1,5,24,
0,2,3,24,
0,2,4,24,
0,2,5,24,
0,3,0,24,
0,3,1,24,
0,3,2,24,
0,3,3,24,
0,3,4,24,
0,3,5,24,
0,4,0,24,
0,4,1,24,
0,4,2,24,
0,4,3,24,
0,4,4,24,
0,4,5,24,
0,5,0,24,
0,5,1,24,
0,5,2,24,
0,5,3,24,
0,5,4,24,
0,5,5,24,
1,0,0,24,
1,0,2,24,
1,0,5,24,
1,1,5,24,
1,2,0,24,
1,2,2,24,
1,2,5,24,
1,3,3,24,
1,3,4,24,
1,3,5,24,
1,4,3,24,
1,4,4,24,
1,4,5,24,
1,5,0,24,
1,5,1,24,
1,5,2,24,
1,5,3,24,
1,5,4,24,
1,5,5,24,
2,0,0,24,
2,0,1,24,
2,0,3,24,
2,1,0,24,
2,1,1,24,
2,1,3,24,
2,2,3,24,
2,3,0,24,
2,3,1,24,
2,3,2,24,
2,3,3,24,
2,3,4,24,
2,3,5,24,
2,4,3,24,
2,4,4,24,
2,4,5,24,
2,5,3,24,
2,5,4,24,
2,5,5,24,
3,0,0,24,
3,0,1,24,
3,0,2,24,
3,0,3,24,
3,0,4,24,
3,0,5,24,
3,1,0,24,
3,1,2,24,
3,1,5,24,
3,2,0,24,
3,2,1,24,
3,2,2,24,
3,2,3,24,
3,2,4,24,
3,2,5,24,
3,3,0,24,
3,3,2,24,
3,3,5,24,
3,4,0,24,
3,4,2,24,
3,4,5,24,
3,5,0,24,
3,5,1,24,
3,5,2,24,
3,5,3,24,
3,5,4,24,
3,5,5,24,
4,0,0,24,
4,0,1,24,
4,0,2,24,
4,0,3,24,
4,0,4,24,
4,0,5,24,
4,1,0,24,
4,1,1,24,
4,1,3,24,
4,2,0,24,
4,2,2,24,
4,2,5,24,
4,3,0,24,
4,3,1,24,
4,3,3,24,
4,4,0,24,
4,5,0,24,
4,5,2,24,
4,5,5,24,
5,0,0,24,
5,0,1,24,
5,0,2,24,
5,0,3,24,
5,0,4,24,
5,0,5,24,
5,1,0,24,
5,1,1,24,
5,1,2,24,
5,1,3,24,
5,1,4,24,
5,1,5,24,
5,2,0,24,
5,2,1,24,
5,2,3,24,
5,3,0,24,
5,3,1,24,
5,3,2,24,
5,3,3,24,
5,3,4,24,
5,3,5,24,
5,4,0,24,
5,4,1,24,
5,4,3,24,
5,5,0,24,
5,5,1,24,
5,5,3,24]},
"F_8_4_6":{"scope":["x8","x4","x6"],"defaultcost":0,
"costs":[
0,0,3,24,
0,0,4,24,
0,0,5,24,
0,1,3,24,
0,1,4,24,
0,1,5,24,
0,2,3,24,
0,2,4,24,
0,2,5,24,
0,3,0,24,
0,3,1,24,
0,3,2,24,
0,3,3,24,
0,3,4,24,
0,3,5,24,
0,4,0,24,
0,4,1,24,
0,4,2,24,
0,4,3,24,
0,4,4,24,
0,4,5,24,
0,5,0,24,
0,5,1,24,
0,5,2,24,
0,5,3,24,
0,5,4,24,
0,5,5,24,
1,0,0,24,
1,0,2,24,
1,0,5,24,
1,1,5,24,
1,2,0,24,
1,2,2,24,
1,2,5,24,
1,3,3,24,
1,3,4,24,
1,3,5,24,
1,4,3,24,
1,4,4,24,
1,4,5,24,
1,5,0,24,
1,5,1,24,
1,5,2,24,
1,5,3,24,
1,5,4,24,
1,5,5,24,
2,0,0,24,
2,0,1,24,
2,0,3,24,
2,1,0,24,
2,1,1,24,
2,1,3,24,
2,2,3,24,
2,3,0,24,
2,3,1,24,
2,3,2,24,
2,3,3,24,
2,3,4,24,
2,3,5,24,
2,4,3,24,
2,4,4,24,
2,4,5,24,
2,5,3,24,
2,5,4,24,
2,5,5,24,
3,0,0,24,
3,0,1,24,
3,0,2,24,
3,0,3,24,
3,0,4,24,
3,0,5,24,
3,1,0,24,
3,1,2,24,
3,1,5,24,
3,2,0,24,
3,2,1,24,
3,2,2,24,
3,2,3,24,
3,2,4,24,
3,2,5,24,
3,3,0,24,
3,3,2,24,
3,3,5,24,
3,4,0,24,
3,4,2,24,
3,4,5,24,
3,5,0,24,
3,5,1,24,
3,5,2,24,
3,5,3,24,
3,5,4,24,
3,5,5,24,
4,0,0,24,
4,0,1,24,
4,0,2,24,
4,0,3,24,
4,0,4,24,
4,0,5,24,
4,1,0,24,
4,1,1,24,
4,1,3,24,
4,2,0,24,
4,2,2,24,
4,2,5,24,
4,3,0,24,
4,3,1,24,
4,3,3,24,
4,4,0,24,
4,5,0,24,
4,5,2,24,
4,5,5,24,
5,0,0,24,
5,0,1,24,
5,0,2,24,
5,0,3,24,
5,0,4,24,
5,0,5,24,
5,1,0,24,
5,1,1,24,
5,1,2,24,
5,1,3,24,
5,1,4,24,
5,1,5,24,
5,2,0,24,
5,2,1,24,
5,2,3,24,
5,3,0,24,
5,3,1,24,
5,3,2,24,
5,3,3,24,
5,3,4,24,
5,3,5,24,
5,4,0,24,
5,4,1,24,
5,4,3,24,
5,5,0,24,
5,5,1,24,
5,5,3,24]},
"F_9_8_7":{"scope":["x9","x8","x7"],"defaultcost":0,
"costs":[
0,0,3,24,
0,0,4,24,
0,0,5,24,
0,1,3,24,
0,1,4,24,
0,1,5,24,
0,2,3,24,
0,2,4,24,
0,2,5,24,
0,3,0,24,
0,3,1,24,
0,3,2,24,
0,3,3,24,
0,3,4,24,
0,3,5,24,
0,4,0,24,
0,4,1,24,
0,4,2,24,
0,4,3,24,
0,4,4,24,
0,4,5,24,
0,5,0,24,
0,5,1,24,
0,5,2,24,
0,5,3,24,
0,5,4,24,
0,5,5,24,
1,0,0,24,
1,0,2,24,
1,0,5,24,
1,1,5,24,
1,2,0,24,
1,2,2,24,
1,2,5,24,
1,3,3,24,
1,3,4,24,
1,3,5,24,
1,4,3,24,
1,4,4,24,
1,4,5,24,
1,5,0,24,
1,5,1,24,
1,5,2,24,
1,5,3,24,
1,5,4,24,
1,5,5,24,
2,0,0,24,
2,0,1,24,
2,0,3,24,
2,1,0,24,
2,1,1,24,
2,1,3,24,
2,2,3,24,
2,3,0,24,
2,3,1,24,
2,3,2,24,
2,3,3,24,
2,3,4,24,
2,3,5,24,
2,4,3,24,
2,4,4,24,
2,4,5,24,
2,5,3,24,
2,5,4,24,
2,5,5,24,
3,0,0,24,
3,0,1,24,
3,0,2,24,
3,0,3,24,
3,0,4,24,
3,0,5,24,
3,1,0,24,
3,1,2,24,
3,1,5,24,
3,2,0,24,
3,2,1,24,
3,2,2,24,
3,2,3,24,
3,2,4,24,
3,2,5,24,
3,3,0,24,
3,3,2,24,
3,3,5,24,
3,4,0,24,
3,4,2,24,
3,4,5,24,
3,5,0,24,
3,5,1,24,
3,5,2,24,
3,5,3,24,
3,5,4,24,
3,5,5,24,
4,0,0,24,
4,0,1,24,
4,0,2,24,
4,0,3,24,
4,0,4,24,
4,0,5,24,
4,1,0,24,
4,1,1,24,
4,1,3,24,
4,2,0,24,
4,2,2,24,
4,2,5,24,
4,3,0,24,
4,3,1,24,
4,3,3,24,
4,4,0,24,
4,5,0,24,
4,5,2,24,
4,5,5,24,
5,0,0,24,
5,0,1,24,
5,0,2,24,
5,0,3,24,
5,0,4,24,
5,0,5,24,
5,1,0,24,
5,1,1,24,
5,1,2,24,
5,1,3,24,
5,1,4,24,
5,1,5,24,
5,2,0,24,
5,2,1,24,
5,2,3,24,
5,3,0,24,
5,3,1,24,
5,3,2,24,
5,3,3,24,
5,3,4,24,
5,3,5,24,
5,4,0,24,
5,4,1,24,
5,4,3,24,
5,5,0,24,
5,5,1,24,
5,5,3,24]},
"F_10_8_7":{"scope":["x10","x8","x7"],"defaultcost":0,
"costs":[
0,0,3,24,
0,0,4,24,
0,0,5,24,
0,1,3,24,
0,1,4,24,
0,1,5,24,
0,2,3,24,
0,2,4,24,
0,2,5,24,
0,3,0,24,
0,3,1,24,
0,3,2,24,
0,3,3,24,
0,3,4,24,
0,3,5,24,
0,4,0,24,
0,4,1,24,
0,4,2,24,
0,4,3,24,
0,4,4,24,
0,4,5,24,
0,5,0,24,
0,5,1,24,
0,5,2,24,
0,5,3,24,
0,5,4,24,
0,5,5,24,
1,0,0,24,
1,0,2,24,
1,0,5,24,
1,1,5,24,
1,2,0,24,
1,2,2,24,
1,2,5,24,
1,3,3,24,
1,3,4,24,
1,3,5,24,
1,4,3,24,
1,4,4,24,
1,4,5,24,
1,5,0,24,
1,5,1,24,
1,5,2,24,
1,5,3,24,
1,5,4,24,
1,5,5,24,
2,0,0,24,
2,0,1,24,
2,0,3,24,
2,1,0,24,
2,1,1,24,
2,1,3,24,
2,2,3,24,
2,3,0,24,
2,3,1,24,
2,3,2,24,
2,3,3,24,
2,3,4,24,
2,3,5,24,
2,4,3,24,
2,4,4,24,
2,4,5,24,
2,5,3,24,
2,5,4,24,
2,5,5,24,
3,0,0,24,
3,0,1,24,
3,0,2,24,
3,0,3,24,
3,0,4,24,
3,0,5,24,
3,1,0,24,
3,1,2,24,
3,1,5,24,
3,2,0,24,
3,2,1,24,
3,2,2,24,
3,2,3,24,
3,2,4,24,
3,2,5,24,
3,3,0,24,
3,3,2,24,
3,3,5,24,
3,4,0,24,
3,4,2,24,
3,4,5,24,
3,5,0,24,
3,5,1,24,
3,5,2,24,
3,5,3,24,
3,5,4,24,
3,5,5,24,
4,0,0,24,
4,0,1,24,
4,0,2,24,
4,0,3,24,
4,0,4,24,
4,0,5,24,
4,1,0,24,
4,1,1,24,
4,1,3,24,
4,2,0,24,
4,2,2,24,
4,2,5,24,
4,3,0,24,
4,3,1,24,
4,3,3,24,
4,4,0,24,
4,5,0,24,
4,5,2,24,
4,5,5,24,
5,0,0,24,
5,0,1,24,
5,0,2,24,
5,0,3,24,
5,0,4,24,
5,0,5,24,
5,1,0,24,
5,1,1,24,
5,1,2,24,
5,1,3,24,
5,1,4,24,
5,1,5,24,
5,2,0,24,
5,2,1,24,
5,2,3,24,
5,3,0,24,
5,3,1,24,
5,3,2,24,
5,3,3,24,
5,3,4,24,
5,3,5,24,
5,4,0,24,
5,4,1,24,
5,4,3,24,
5,5,0,24,
5,5,1,24,
5,5,3,24]},
"F_11_8_7":{"scope":["x11","x8","x7"],"defaultcost":0,
"costs":[
0,0,3,24,
0,0,4,24,
0,0,5,24,
0,1,3,24,
0,1,4,24,
0,1,5,24,
0,2,3,24,
0,2,4,24,
0,2,5,24,
0,3,0,24,
0,3,1,24,
0,3,2,24,
0,3,3,24,
0,3,4,24,
0,3,5,24,
0,4,0,24,
0,4,1,24,
0,4,2,24,
0,4,3,24,
0,4,4,24,
0,4,5,24,
0,5,0,24,
0,5,1,24,
0,5,2,24,
0,5,3,24,
0,5,4,24,
0,5,5,24,
1,0,0,24,
1,0,2,24,
1,0,5,24,
1,1,5,24,
1,2,0,24,
1,2,2,24,
1,2,5,24,
1,3,3,24,
1,3,4,24,
1,3,5,24,
1,4,3,24,
1,4,4,24,
1,4,5,24,
1,5,0,24,
1,5,1,24,
1,5,2,24,
1,5,3,24,
1,5,4,24,
1,5,5,24,
2,0,0,24,
2,0,1,24,
2,0,3,24,
2,1,0,24,
2,1,1,24,
2,1,3,24,
2,2,3,24,
2,3,0,24,
2,3,1,24,
2,3,2,24,
2,3,3,24,
2,3,4,24,
2,3,5,24,
2,4,3,24,
2,4,4,24,
2,4,5,24,
2,5,3,24,
2,5,4,24,
2,5,5,24,
3,0,0,24,
3,0,1,24,
3,0,2,24,
3,0,3,24,
3,0,4,24,
3,0,5,24,
3,1,0,24,
3,1,2,24,
3,1,5,24,
3,2,0,24,
3,2,1,24,
3,2,2,24,
3,2,3,24,
3,2,4,24,
3,2,5,24,
3,3,0,24,
3,3,2,24,
3,3,5,24,
3,4,0,24,
3,4,2,24,
3,4,5,24,
3,5,0,24,
3,5,1,24,
3,5,2,24,
3,5,3,24,
3,5,4,24,
3,5,5,24,
4,0,0,24,
4,0,1,24,
4,0,2,24,
4,0,3,24,
4,0,4,24,
4,0,5,24,
4,1,0,24,
4,1,1,24,
4,1,3,24,
4,2,0,24,
4,2,2,24,
4,2,5,24,
4,3,0,24,
4,3,1,24,
4,3,3,24,
4,4,0,24,
4,5,0,24,
4,5,2,24,
4,5,5,24,
5,0,0,24,
5,0,1,24,
5,0,2,24,
5,0,3,24,
5,0,4,24,
5,0,5,24,
5,1,0,24,
5,1,1,24,
5,1,2,24,
5,1,3,24,
5,1,4,24,
5,1,5,24,
5,2,0,24,
5,2,1,24,
5,2,3,24,
5,3,0,24,
5,3,1,24,
5,3,2,24,
5,3,3,24,
5,3,4,24,
5,3,5,24,
5,4,0,24,
5,4,1,24,
5,4,3,24,
5,5,0,24,
5,5,1,24,
5,5,3,24]},
"F_0":{"scope":["x0"],"defaultcost":8,
"costs":[0,1,1,1,2,1,3,0,4,1,5,1]},
"F_2":{"scope":["x2"],"defaultcost":8,
"costs":[0,1,1,1,2,1,3,0,4,1,5,1]},
"F_5":{"scope":["x5"],"defaultcost":8,
"costs":[0,1,1,1,2,1,3,0,4,1,5,1]},
"F_6":{"scope":["x6"],"defaultcost":8,
"costs":[0,1,1,1,2,1,3,0,4,1,5,1]},
"F_9":{"scope":["x9"],"defaultcost":8,
"costs":[0,1,1,1,2,1,3,0,4,1,5,1]},
"F_10":{"scope":["x10"],"defaultcost":8,
"costs":[0,1,1,0,2,1,3,1,4,1,5,1]},
"F_11":{"scope":["x11"],"defaultcost":8,
"costs":[0,1,1,1,2,1,3,1,4,0,5,1]},
"F":{"scope":[],"costs":[0]}
}
}
